
#============= Atomic informations ===============

NumberOfAtoms    8
NumberOfSpecies  1

%block ChemicalSpeciesLabel
	1	15 	 P
%endblock ChemicalSpeciesLabel

#======== lattice, cell and coordinates ==========

#= lattice constant =

LatticeConstant 1.0 Ang

#== Lattice Vectors - Simulation box ==

%block LatticeVectors
	6.630489	0.000044	0.000005
	3.315283	5.742159	0.000049
	0.000009	0.000084	10.025705
%endblock LatticeVectors

#=== Coordinates and formats (input and output) ===

AtomicCoordinatesFormat Ang
AtomCoorFormatOut       Ang

%block AtomicCoordinatesAndAtomicSpecies
	1.657630	0.957090	4.982197	1
	3.315264	1.914082	6.250413	1
	3.315286	3.828144	4.982195	1
	4.972898	4.785181	6.250410	1
	6.630540	3.828189	4.982219	1
	6.630469	1.914108	6.250382	1
	4.972902	0.957125	4.982154	1
	8.288161	4.785219	6.250423	1
%endblock AtomicCoordinatesAndAtomicSpecies

